50 12
   1   -1   -1   -1    4   10   -1   -1    6   -1   -1   -1   -1   -1   -1    5    9   -1   11   -1   -1   -1   -1   -1   -1   -1   -1   -1   -1   -1   -1   -1    3    3    9   -1   -1   -1    7   -1    1   -1   -1   -1   -1   -1   -1   -1   -1    5 
   0    1   -1    4   -1   -1   -1    8   -1   -1   -1   11   -1   -1   -1   -1   -1   -1    8    7   -1   -1   -1   -1    9   -1   -1   -1   -1   -1   -1    8   -1   -1   -1   -1   -1   -1   -1   -1   -1   -1   -1    4    4    0   -1    2   -1   -1 
   0    0    1   -1   -1   -1   -1   -1   -1   -1   -1   -1   -1   -1    9   -1   -1   -1   -1   -1   -1   -1   -1   -1   -1    1   -1   -1   -1   -1   -1   -1   -1   -1   -1   -1   -1   -1    9   -1   -1    0   -1   -1   -1   -1   -1   -1   -1   -1 
   0    0    0    1   -1   -1   -1   -1   -1   -1   -1   -1   -1   -1   -1   -1   -1   -1   -1   -1   -1   -1   -1   -1   -1   -1   -1   -1   -1   -1   -1    2   -1   -1   -1    2   -1   -1   -1   -1   -1   -1   -1   -1    5   -1   -1   -1   -1   -1 
   0    0    0    0    1   -1   -1   -1   -1   -1   -1   -1    0   -1    8   -1    4   -1   10   10   -1    1    0   -1    3   -1   -1    6   -1   -1   -1   -1    5   -1   -1   -1   -1   -1   -1    9   -1   -1   -1    7   -1   -1   -1   -1   -1   -1 
   0    0    0    0    0    1   -1   -1   -1    2   10   -1   -1   -1   -1   -1   -1   -1   -1   -1   11   -1   -1    9   -1   -1   10   -1   -1   -1   -1   -1   -1   -1   -1   -1   -1    5   -1   -1   -1   -1   -1   -1   -1   -1    1    6    4   -1 
   0    0    0    0    0    0    1   -1   -1   -1   -1   -1    3   -1    7   -1   -1    4   -1   -1   -1   -1    5   -1   -1   -1   -1   -1   -1   -1    2   -1    0   -1   -1   -1   -1   -1   -1   -1   -1   -1    8   -1   -1    8   -1   -1   -1   -1 
   0    0    0    0    0    0    0    1   -1   -1   -1   -1   -1   -1   -1   -1   -1   -1   -1   -1   -1   -1   -1   -1   -1   -1   -1   -1    8   -1   -1   -1   -1   -1   10   -1   -1    0   -1   -1   -1   -1   -1    5   -1   -1    8   -1   -1   -1 
   0    0    0    0    0    0    0    0    1   -1   -1   -1    2   -1   -1   -1   -1   -1   -1   -1   -1    6   -1   -1   -1    5   -1   -1    1   -1   -1   10   -1   -1   -1   -1   -1   -1   -1    4   -1   -1   -1   -1   -1   -1   -1   -1   11   -1 
   0    0    0    0    0    0    0    0    0    1   -1    7   -1   -1   -1   -1   -1   -1   -1   -1   -1   -1    6   -1   -1   -1   -1   -1   -1   -1   -1   -1   10   -1   -1    4   -1   -1   -1   -1   -1   -1    9   -1   -1   -1   -1   -1    1   -1 
   0    0    0    0    0    0    0    0    0    0    1   -1   10   -1   -1   -1   -1   -1   -1   -1   -1    3   -1   -1   -1    5   -1   -1   -1   -1    3   -1   -1   -1    8   -1   -1    2   -1   -1   -1   -1   -1   -1   -1    5   -1    6    8   -1 
   0    0    0    0    0    0    0    0    0    0    0    1   -1   -1   -1    7   -1   -1   -1   -1   -1    8   -1   -1   -1   -1   -1   -1   -1   -1    3    6   -1   -1    1   -1    7   -1    5   -1   -1   -1    2   -1   -1    9   -1   -1    6   -1 
   0    0    0    0    0    0    0    0    0    0    0    0    1    8   -1   -1   -1   -1   -1   -1   -1   -1    2   -1   -1   -1   -1   -1   -1   -1   -1   -1   -1   -1   -1   -1   10   -1    0   -1   -1   -1   -1   -1   11   -1   -1   -1    3   -1 
   0    0    0    0    0    0    0    0    0    0    0    0    0    1   -1   -1   -1    5   -1   -1   -1   -1   -1   -1    0   -1   -1   -1   -1   -1   10   -1   -1   -1   -1   -1   -1   -1   -1   -1   -1   -1   -1   -1   -1   -1   -1   -1    2   -1 
   0    0    0    0    0    0    0    0    0    0    0    0    0    0    1    4   -1   -1   -1   -1   -1   -1   -1   -1   -1   -1   -1   -1   -1   -1   -1   -1   -1   -1   -1   -1   -1   -1    8   -1   -1   -1   -1   -1   -1   -1   -1   -1   -1   -1 
   0    0    0    0    0    0    0    0    0    0    0    0    0    0    0    1   -1   -1   -1   -1   -1   -1   -1    2   -1   -1   -1   -1   -1    5   -1   -1   -1   -1   -1   -1   -1   -1   10   -1   -1   -1   -1   -1   -1   -1   -1   -1   -1   10 
   0    0    0    0    0    0    0    0    0    0    0    0    0    0    0    0    1   -1   -1   -1    6   -1   -1   -1   -1    5   -1   -1   -1   -1   -1   -1   -1   -1   -1    5   -1   -1   -1    7   -1   -1   -1   -1   -1   -1   -1   -1   11   -1 
   0    0    0    0    0    0    0    0    0    0    0    0    0    0    0    0    0    1   -1   -1   -1   -1   -1    7   -1    5    3   -1    9   -1   -1   -1   -1   -1   -1   -1   -1   -1    0   -1   -1    5   -1   -1    9   -1   -1   -1   -1   -1 
   0    0    0    0    0    0    0    0    0    0    0    0    0    0    0    0    0    0    1   -1   -1   -1   -1    3   -1   -1   -1   -1   -1   -1   -1   -1   -1   -1   -1   -1   -1   -1    1   -1   -1   -1   -1   -1    3   -1   -1   -1   -1   10 
   0    0    0    0    0    0    0    0    0    0    0    0    0    0    0    0    0    0    0    1    7   -1   -1   -1    8   -1   -1   -1    4    2   -1   -1   -1   -1   11   -1   -1   -1    7   -1   -1   -1   -1   -1   -1    0    4   10   -1   -1 
   0    0    0    0    0    0    0    0    0    0    0    0    0    0    0    0    0    0    0    0    0   -1   -1   -1   -1   -1   -1   -1   -1   -1   -1   -1   -1   -1   -1   -1    2   -1    9   -1   -1   -1    6   -1   -1   -1   -1   -1   -1   -1 
   0    0    0    0    0    0    0    0    0    0    0    0    0    0    0    0    0    0    0    0    0    0   -1   -1   -1   -1   -1   -1   -1   -1   -1   -1   -1    6   -1    8   -1   -1   -1   -1   -1   -1   -1   -1   -1   -1   -1   -1   -1   -1 
   0    0    0    0    0    0    0    0    0    0    0    0    0    0    0    0    0    0    0    0    0    0    0   -1   -1   -1   -1   -1   -1   -1   -1    4   -1   -1   -1   -1   -1   -1    2   -1   -1   -1   11   -1   -1   10   -1   -1    5   -1 
   0    0    0    0    0    0    0    0    0    0    0    0    0    0    0    0    0    0    0    0    0    0    0    0   -1   -1   -1    8   10    9    4   -1    5   -1   -1   -1    4   -1   -1   -1   -1   -1    4    4   -1   -1   -1   -1   -1   -1 
   0    0    0    0    0    0    0    0    0    0    0    0    0    0    0    0    0    0    0    0    0    0    0    0    0   -1   -1   -1   -1   -1   -1   -1   11    9   -1    5   -1   -1   -1   -1   -1   -1   -1    5   -1   -1    2   -1   -1   10 
   0    0    0    0    0    0    0    0    0    0    0    0    0    0    0    0    0    0    0    0    0    0    0    0    0    0   -1   -1   -1    8   -1    1   -1   -1   -1   -1    4   -1    5   11   -1   -1    2   -1   -1   -1   -1   -1   -1   -1 
   0    0    0    0    0    0    0    0    0    0    0    0    0    0    0    0    0    0    0    0    0    0    0    0    0    0    0   -1    7   -1   -1   -1   -1   -1   -1   -1   -1    2   -1   -1   -1   -1   -1   -1   -1   -1    3   -1   11   -1 
   0    0    0    0    0    0    0    0    0    0    0    0    0    0    0    0    0    0    0    0    0    0    0    0    0    0    0    0   -1   -1   -1   -1   -1   -1    1    5    6   -1   -1   -1    1   -1    6   -1   -1   -1   -1    3   -1   -1 
   0    0    0    0    0    0    0    0    0    0    0    0    0    0    0    0    0    0    0    0    0    0    0    0    0    0    0    0    0   -1   -1    4    1    0    9    6    7    5    3   -1    3   -1   -1   -1    8   -1    0   -1   -1   -1 
   0    0    0    0    0    0    0    0    0    0    0    0    0    0    0    0    0    0    0    0    0    0    0    0    0    0    0    0    0    0   -1   -1   -1   -1   -1   10   -1   10   -1   -1    8   -1   -1   -1   -1   -1   -1   -1   -1    2 
   0    0    0    0    0    0    0    0    0    0    0    0    0    0    0    0    0    0    0    0    0    0    0    0    0    0    0    0    0    0    0   -1   -1   -1   -1   10   -1   -1   -1   -1   -1   -1   11   -1    0   11   -1   -1   -1   -1 
   0    0    0    0    0    0    0    0    0    0    0    0    0    0    0    0    0    0    0    0    0    0    0    0    0    0    0    0    0    0    0    0   -1   -1   -1   -1   -1   -1    7    5    0    7   -1   -1   -1   -1    9   -1   -1   -1 
   0    0    0    0    0    0    0    0    0    0    0    0    0    0    0    0    0    0    0    0    0    0    0    0    0    0    0    0    0    0    0    0    0   -1   11   -1   -1   -1   -1    7   -1   -1   -1   -1   -1   -1   -1   -1    7   -1 
   0    0    0    0    0    0    0    0    0    0    0    0    0    0    0    0    0    0    0    0    0    0    0    0    0    0    0    0    0    0    0    0    0    0   -1   -1   -1   -1   10   -1   -1   -1   -1   -1    0   -1   -1   -1   -1   -1 
   0    0    0    0    0    0    0    0    0    0    0    0    0    0    0    0    0    0    0    0    0    0    0    0    0    0    0    0    0    0    0    0    0    0    0   -1    0    4   -1   -1   -1    6   -1   -1   -1   -1   -1   -1   -1   -1 
   0    0    0    0    0    0    0    0    0    0    0    0    0    0    0    0    0    0    0    0    0    0    0    0    0    0    0    0    0    0    0    0    0    0    0    0   -1   -1   -1   -1   -1   -1   -1   -1    2    2   -1   -1    3   -1 
   0    0    0    0    0    0    0    0    0    0    0    0    0    0    0    0    0    0    0    0    0    0    0    0    0    0    0    0    0    0    0    0    0    0    0    0    0   -1   -1   -1   11   -1   -1    1   -1   -1   -1    3   -1   -1 
   0    0    0    0    0    0    0    0    0    0    0    0    0    0    0    0    0    0    0    0    0    0    0    0    0    0    0    0    0    0    0    0    0    0    0    0    0    0    4    7   -1   -1   -1   -1   -1   -1   -1   -1    1   -1 
   0    0    0    0    0    0    0    0    0    0    0    0    0    0    0    0    0    0    0    0    0    0    0    0    0    0    0    0    0    0    0    0    0    0    0    0    0    0    0   -1   -1   -1   -1    8   -1   -1   -1   -1   -1   -1 
   0    0    0    0    0    0    0    0    0    0    0    0    0    0    0    0    0    0    0    0    0    0    0    0    0    0    0    0    0    0    0    0    0    0    0    0    0    0    0    0    7    9   -1   -1   -1   -1    1   -1   -1   -1 
   0    0    0    0    0    0    0    0    0    0    0    0    0    0    0    0    0    0    0    0    0    0    0    0    0    0    0    0    0    0    0    0    0    0    0    0    0    0    0    0    0   -1   -1   -1   -1   10   -1   -1    8    0 
   0    0    0    0    0    0    0    0    0    0    0    0    0    0    0    0    0    0    0    0    0    0    0    0    0    0    0    0    0    0    0    0    0    0    0    0    0    0    0    0    0    0   -1   -1   -1   -1   -1   -1   -1   -1 
   0    0    0    0    0    0    0    0    0    0    0    0    0    0    0    0    0    0    0    0    0    0    0    0    0    0    0    0    0    0    0    0    0    0    0    0    0    0    0    0    0    0    0   -1   -1   -1   -1   -1   -1   -1 
   0    0    0    0    0    0    0    0    0    0    0    0    0    0    0    0    0    0    0    0    0    0    0    0    0    0    0    0    0    0    0    0    0    0    0    0    0    0    0    0    0    0    0    0   -1   -1   -1   -1   -1   -1 
   0    0    0    0    0    0    0    0    0    0    0    0    0    0    0    0    0    0    0    0    0    0    0    0    0    0    0    0    0    0    0    0    0    0    0    0    0    0    0    0    0    0    0    0    0   -1   -1   -1   -1   -1 
   0    0    0    0    0    0    0    0    0    0    0    0    0    0    0    0    0    0    0    0    0    0    0    0    0    0    0    0    0    0    0    0    0    0    0    0    0    0    0    0    0    0    0    0    0    0   -1   -1   -1   11 
   0    0    0    0    0    0    0    0    0    0    0    0    0    0    0    0    0    0    0    0    0    0    0    0    0    0    0    0    0    0    0    0    0    0    0    0    0    0    0    0    0    0    0    0    0    0    0    3   -1   -1 
   0    0    0    0    0    0    0    0    0    0    0    0    0    0    0    0    0    0    0    0    0    0    0    0    0    0    0    0    0    0    0    0    0    0    0    0    0    0    0    0    0    0    0    0    0    0    0    0   -1   -1 
   0    0    0    0    0    0    0    0    0    0    0    0    0    0    0    0    0    0    0    0    0    0    0    0    0    0    0    0    0    0    0    0    0    0    0    0    0    0    0    0    0    0    0    0    0    0    0    0    0   -1 
   0    0    0    0    0    0    0    0    0    0    0    0    0    0    0    0    0    0    0    0    0    0    0    0    0    0    0    0    0    0    0    0    0    0    0    0    0    0    0    0    0    0    0    0    0    0    0    0    0    0 
